c This is a DIMACS SAT-instances file to check the chromatic number
c 
c The file Name               : GraphR2.txt
c The number of vertices      : 44
c 
c The chosen number of colour : 4
c 
p cnf 176 748
1 45 89 133 0
2 46 90 134 0
3 47 91 135 0
4 48 92 136 0
5 49 93 137 0
6 50 94 138 0
7 51 95 139 0
8 52 96 140 0
9 53 97 141 0
10 54 98 142 0
11 55 99 143 0
12 56 100 144 0
13 57 101 145 0
14 58 102 146 0
15 59 103 147 0
16 60 104 148 0
17 61 105 149 0
18 62 106 150 0
19 63 107 151 0
20 64 108 152 0
21 65 109 153 0
22 66 110 154 0
23 67 111 155 0
24 68 112 156 0
25 69 113 157 0
26 70 114 158 0
27 71 115 159 0
28 72 116 160 0
29 73 117 161 0
30 74 118 162 0
31 75 119 163 0
32 76 120 164 0
33 77 121 165 0
34 78 122 166 0
35 79 123 167 0
36 80 124 168 0
37 81 125 169 0
38 82 126 170 0
39 83 127 171 0
40 84 128 172 0
41 85 129 173 0
42 86 130 174 0
43 87 131 175 0
44 88 132 176 0
-1 -45 0
-1 -89 0
-1 -133 0
-45 -89 0
-45 -133 0
-89 -133 0
-2 -46 0
-2 -90 0
-2 -134 0
-46 -90 0
-46 -134 0
-90 -134 0
-3 -47 0
-3 -91 0
-3 -135 0
-47 -91 0
-47 -135 0
-91 -135 0
-4 -48 0
-4 -92 0
-4 -136 0
-48 -92 0
-48 -136 0
-92 -136 0
-5 -49 0
-5 -93 0
-5 -137 0
-49 -93 0
-49 -137 0
-93 -137 0
-6 -50 0
-6 -94 0
-6 -138 0
-50 -94 0
-50 -138 0
-94 -138 0
-7 -51 0
-7 -95 0
-7 -139 0
-51 -95 0
-51 -139 0
-95 -139 0
-8 -52 0
-8 -96 0
-8 -140 0
-52 -96 0
-52 -140 0
-96 -140 0
-9 -53 0
-9 -97 0
-9 -141 0
-53 -97 0
-53 -141 0
-97 -141 0
-10 -54 0
-10 -98 0
-10 -142 0
-54 -98 0
-54 -142 0
-98 -142 0
-11 -55 0
-11 -99 0
-11 -143 0
-55 -99 0
-55 -143 0
-99 -143 0
-12 -56 0
-12 -100 0
-12 -144 0
-56 -100 0
-56 -144 0
-100 -144 0
-13 -57 0
-13 -101 0
-13 -145 0
-57 -101 0
-57 -145 0
-101 -145 0
-14 -58 0
-14 -102 0
-14 -146 0
-58 -102 0
-58 -146 0
-102 -146 0
-15 -59 0
-15 -103 0
-15 -147 0
-59 -103 0
-59 -147 0
-103 -147 0
-16 -60 0
-16 -104 0
-16 -148 0
-60 -104 0
-60 -148 0
-104 -148 0
-17 -61 0
-17 -105 0
-17 -149 0
-61 -105 0
-61 -149 0
-105 -149 0
-18 -62 0
-18 -106 0
-18 -150 0
-62 -106 0
-62 -150 0
-106 -150 0
-19 -63 0
-19 -107 0
-19 -151 0
-63 -107 0
-63 -151 0
-107 -151 0
-20 -64 0
-20 -108 0
-20 -152 0
-64 -108 0
-64 -152 0
-108 -152 0
-21 -65 0
-21 -109 0
-21 -153 0
-65 -109 0
-65 -153 0
-109 -153 0
-22 -66 0
-22 -110 0
-22 -154 0
-66 -110 0
-66 -154 0
-110 -154 0
-23 -67 0
-23 -111 0
-23 -155 0
-67 -111 0
-67 -155 0
-111 -155 0
-24 -68 0
-24 -112 0
-24 -156 0
-68 -112 0
-68 -156 0
-112 -156 0
-25 -69 0
-25 -113 0
-25 -157 0
-69 -113 0
-69 -157 0
-113 -157 0
-26 -70 0
-26 -114 0
-26 -158 0
-70 -114 0
-70 -158 0
-114 -158 0
-27 -71 0
-27 -115 0
-27 -159 0
-71 -115 0
-71 -159 0
-115 -159 0
-28 -72 0
-28 -116 0
-28 -160 0
-72 -116 0
-72 -160 0
-116 -160 0
-29 -73 0
-29 -117 0
-29 -161 0
-73 -117 0
-73 -161 0
-117 -161 0
-30 -74 0
-30 -118 0
-30 -162 0
-74 -118 0
-74 -162 0
-118 -162 0
-31 -75 0
-31 -119 0
-31 -163 0
-75 -119 0
-75 -163 0
-119 -163 0
-32 -76 0
-32 -120 0
-32 -164 0
-76 -120 0
-76 -164 0
-120 -164 0
-33 -77 0
-33 -121 0
-33 -165 0
-77 -121 0
-77 -165 0
-121 -165 0
-34 -78 0
-34 -122 0
-34 -166 0
-78 -122 0
-78 -166 0
-122 -166 0
-35 -79 0
-35 -123 0
-35 -167 0
-79 -123 0
-79 -167 0
-123 -167 0
-36 -80 0
-36 -124 0
-36 -168 0
-80 -124 0
-80 -168 0
-124 -168 0
-37 -81 0
-37 -125 0
-37 -169 0
-81 -125 0
-81 -169 0
-125 -169 0
-38 -82 0
-38 -126 0
-38 -170 0
-82 -126 0
-82 -170 0
-126 -170 0
-39 -83 0
-39 -127 0
-39 -171 0
-83 -127 0
-83 -171 0
-127 -171 0
-40 -84 0
-40 -128 0
-40 -172 0
-84 -128 0
-84 -172 0
-128 -172 0
-41 -85 0
-41 -129 0
-41 -173 0
-85 -129 0
-85 -173 0
-129 -173 0
-42 -86 0
-42 -130 0
-42 -174 0
-86 -130 0
-86 -174 0
-130 -174 0
-43 -87 0
-43 -131 0
-43 -175 0
-87 -131 0
-87 -175 0
-131 -175 0
-44 -88 0
-44 -132 0
-44 -176 0
-88 -132 0
-88 -176 0
-132 -176 0
-7 -10 0
-51 -54 0
-95 -98 0
-139 -142 0
-7 -29 0
-51 -73 0
-95 -117 0
-139 -161 0
-7 -43 0
-51 -87 0
-95 -131 0
-139 -175 0
-7 -16 0
-51 -60 0
-95 -104 0
-139 -148 0
-7 -25 0
-51 -69 0
-95 -113 0
-139 -157 0
-10 -14 0
-54 -58 0
-98 -102 0
-142 -146 0
-10 -30 0
-54 -74 0
-98 -118 0
-142 -162 0
-10 -13 0
-54 -57 0
-98 -101 0
-142 -145 0
-10 -32 0
-54 -76 0
-98 -120 0
-142 -164 0
-21 -26 0
-65 -70 0
-109 -114 0
-153 -158 0
-21 -33 0
-65 -77 0
-109 -121 0
-153 -165 0
-21 -2 0
-65 -46 0
-109 -90 0
-153 -134 0
-21 -8 0
-65 -52 0
-109 -96 0
-153 -140 0
-21 -40 0
-65 -84 0
-109 -128 0
-153 -172 0
-26 -23 0
-70 -67 0
-114 -111 0
-158 -155 0
-26 -34 0
-70 -78 0
-114 -122 0
-158 -166 0
-26 -36 0
-70 -80 0
-114 -124 0
-158 -168 0
-26 -28 0
-70 -72 0
-114 -116 0
-158 -160 0
-29 -12 0
-73 -56 0
-117 -100 0
-161 -144 0
-29 -43 0
-73 -87 0
-117 -131 0
-161 -175 0
-29 -44 0
-73 -88 0
-117 -132 0
-161 -176 0
-29 -19 0
-73 -63 0
-117 -107 0
-161 -151 0
-12 -42 0
-56 -86 0
-100 -130 0
-144 -174 0
-12 -16 0
-56 -60 0
-100 -104 0
-144 -148 0
-12 -8 0
-56 -52 0
-100 -96 0
-144 -140 0
-12 -34 0
-56 -78 0
-100 -122 0
-144 -166 0
-2 -18 0
-46 -62 0
-90 -106 0
-134 -150 0
-2 -22 0
-46 -66 0
-90 -110 0
-134 -154 0
-2 -16 0
-46 -60 0
-90 -104 0
-134 -148 0
-2 -9 0
-46 -53 0
-90 -97 0
-134 -141 0
-18 -14 0
-62 -58 0
-106 -102 0
-150 -146 0
-18 -35 0
-62 -79 0
-106 -123 0
-150 -167 0
-18 -41 0
-62 -85 0
-106 -129 0
-150 -173 0
-18 -44 0
-62 -88 0
-106 -132 0
-150 -176 0
-14 -36 0
-58 -80 0
-102 -124 0
-146 -168 0
-14 -27 0
-58 -71 0
-102 -115 0
-146 -159 0
-14 -20 0
-58 -64 0
-102 -108 0
-146 -152 0
-3 -23 0
-47 -67 0
-91 -111 0
-135 -155 0
-3 -38 0
-47 -82 0
-91 -126 0
-135 -170 0
-3 -8 0
-47 -52 0
-91 -96 0
-135 -140 0
-3 -1 0
-47 -45 0
-91 -89 0
-135 -133 0
-3 -41 0
-47 -85 0
-91 -129 0
-135 -173 0
-23 -24 0
-67 -68 0
-111 -112 0
-155 -156 0
-23 -31 0
-67 -75 0
-111 -119 0
-155 -163 0
-23 -6 0
-67 -50 0
-111 -94 0
-155 -138 0
-1 -33 0
-45 -77 0
-89 -121 0
-133 -165 0
-1 -37 0
-45 -81 0
-89 -125 0
-133 -169 0
-1 -35 0
-45 -79 0
-89 -123 0
-133 -167 0
-1 -39 0
-45 -83 0
-89 -127 0
-133 -171 0
-33 -20 0
-77 -64 0
-121 -108 0
-165 -152 0
-33 -22 0
-77 -66 0
-121 -110 0
-165 -154 0
-33 -38 0
-77 -82 0
-121 -126 0
-165 -170 0
-32 -36 0
-76 -80 0
-120 -124 0
-164 -168 0
-32 -11 0
-76 -55 0
-120 -99 0
-164 -143 0
-32 -27 0
-76 -71 0
-120 -115 0
-164 -159 0
-32 -43 0
-76 -87 0
-120 -131 0
-164 -175 0
-36 -17 0
-80 -61 0
-124 -105 0
-168 -149 0
-36 -31 0
-80 -75 0
-124 -119 0
-168 -163 0
-35 -37 0
-79 -81 0
-123 -125 0
-167 -169 0
-35 -34 0
-79 -78 0
-123 -122 0
-167 -166 0
-35 -31 0
-79 -75 0
-123 -119 0
-167 -163 0
-37 -19 0
-81 -63 0
-125 -107 0
-169 -151 0
-37 -9 0
-81 -53 0
-125 -97 0
-169 -141 0
-37 -27 0
-81 -71 0
-125 -115 0
-169 -159 0
-5 -6 0
-49 -50 0
-93 -94 0
-137 -138 0
-5 -38 0
-49 -82 0
-93 -126 0
-137 -170 0
-5 -25 0
-49 -69 0
-93 -113 0
-137 -157 0
-5 -44 0
-49 -88 0
-93 -132 0
-137 -176 0
-5 -19 0
-49 -63 0
-93 -107 0
-137 -151 0
-6 -31 0
-50 -75 0
-94 -119 0
-138 -163 0
-6 -4 0
-50 -48 0
-94 -92 0
-138 -136 0
-6 -40 0
-50 -84 0
-94 -128 0
-138 -172 0
-4 -24 0
-48 -68 0
-92 -112 0
-136 -156 0
-4 -41 0
-48 -85 0
-92 -129 0
-136 -173 0
-4 -28 0
-48 -72 0
-92 -116 0
-136 -160 0
-4 -11 0
-48 -55 0
-92 -99 0
-136 -143 0
-24 -11 0
-68 -55 0
-112 -99 0
-156 -143 0
-24 -34 0
-68 -78 0
-112 -122 0
-156 -166 0
-24 -19 0
-68 -63 0
-112 -107 0
-156 -151 0
-15 -25 0
-59 -69 0
-103 -113 0
-147 -157 0
-15 -13 0
-59 -57 0
-103 -101 0
-147 -145 0
-15 -30 0
-59 -74 0
-103 -118 0
-147 -162 0
-15 -9 0
-59 -53 0
-103 -97 0
-147 -141 0
-15 -43 0
-59 -87 0
-103 -131 0
-147 -175 0
-25 -41 0
-69 -85 0
-113 -129 0
-157 -173 0
-25 -16 0
-69 -60 0
-113 -104 0
-157 -148 0
-41 -17 0
-85 -61 0
-129 -105 0
-173 -149 0
-11 -17 0
-55 -61 0
-99 -105 0
-143 -149 0
-11 -28 0
-55 -72 0
-99 -116 0
-143 -160 0
-9 -39 0
-53 -83 0
-97 -127 0
-141 -171 0
-9 -20 0
-53 -64 0
-97 -108 0
-141 -152 0
-39 -43 0
-83 -87 0
-127 -131 0
-171 -175 0
-39 -13 0
-83 -57 0
-127 -101 0
-171 -145 0
-39 -16 0
-83 -60 0
-127 -104 0
-171 -148 0
-34 -27 0
-78 -71 0
-122 -115 0
-166 -159 0
-42 -44 0
-86 -88 0
-130 -132 0
-174 -176 0
-42 -13 0
-86 -57 0
-130 -101 0
-174 -145 0
-42 -20 0
-86 -64 0
-130 -108 0
-174 -152 0
-42 -22 0
-86 -66 0
-130 -110 0
-174 -154 0
-19 -40 0
-63 -84 0
-107 -128 0
-151 -172 0
-38 -13 0
-82 -57 0
-126 -101 0
-170 -145 0
-38 -40 0
-82 -84 0
-126 -128 0
-170 -172 0
-22 -28 0
-66 -72 0
-110 -116 0
-154 -160 0
-22 -31 0
-66 -75 0
-110 -119 0
-154 -163 0
-17 -30 0
-61 -74 0
-105 -118 0
-149 -162 0
-17 -44 0
-61 -88 0
-105 -132 0
-149 -176 0
-27 -20 0
-71 -64 0
-115 -108 0
-159 -152 0
-28 -8 0
-72 -52 0
-116 -96 0
-160 -140 0
-30 -40 0
-74 -84 0
-118 -128 0
-162 -172 0
-30 -8 0
-74 -52 0
-118 -96 0
-162 -140 0
